WARNING: for repeatability, setting FPU to use double precision
============================[ Problem Statistics ]=============================
|                                                                             |
|  Number of variables:        141429                                         |
|  Number of clauses:          646015                                         |
|  Parse time:                   0.14 s                                       |
|                                                                             |
c ============================[ Search Statistics ]==============================
c | Conflicts |          ORIGINAL         |          LEARNT          | Progress |
c |           |    Vars  Clauses Literals |    Limit  Clauses Lit/Cl |          |
c ===============================================================================
c Switched to VSIDS.
c Switched to LRB.
c Switched to VSIDS.
c Switched to LRB.
c Switched to VSIDS.
c Switched to LRB.
c Switched to VSIDS.
c Switched to LRB.
c Switched to VSIDS.
c Switched to LRB.
c Switched to VSIDS.
c Switched to LRB.
c Switched to VSIDS.
c Switched to LRB.
c Switched to VSIDS.
c Switched to LRB.
c Switched to VSIDS.
c Switched to LRB.
c Switched to VSIDS.
c Switched to LRB.
c Switched to VSIDS.
c Switched to LRB.
c Switched to VSIDS.
c Switched to LRB.
c Switched to VSIDS.
c Switched to LRB.
c Switched to VSIDS.
c Switched to LRB.
c Switched to VSIDS.
c Switched to LRB.
c ===============================================================================
restarts                  : 25406
conflicts                 : 3884909        (1090 /sec)
decisions                 : 46247827       (0.00 % random) (12980 /sec)
propagations              : 5806004664     (1629485 /sec)
conflict literals         : 366002142      (18.47 % deleted)

conflicts w/ DIP found    : 3165387        (81.48 % of conflicts)
conflicts w/ dangerous DIP: 0              (0.00 % of conflicts)
conflicts w/ DIP-learning : 1377           (0.04 % of conflicts)
decisions on ext vars     : 2630           (0.01 % of decisions)
total ext vars            : 419         
tried delete ext vars     : 0           
deleted ext vars          : 0           
max ext vars              : 419         

Memory used               : 460.00 MB
CPU time                  : 3563.09 s
DIP computation time      : 306.757 s (8.61 % of total time)
ER_sel time               : 5.72656 s
ER_add time               : 0.006242 s
ER_delC time              : 0 s
ER_delV time              : 0 s
ER_sub time               : 7.19513 s
ER_stat time              : 0 s

INDETERMINATE
